networks/zoo_30_42/zoo_30_42.txt
Number of groups: 12
Flow 2: {2 4} {4 15} {15 11} {11 10} {10 25} 
Flow 3: {11 26} 
Flow 5: {2 5} {5 13} {13 28} 
Flow 19: {7 15} {15 13} 
Flow 21: {8 11} {11 12} {12 27} 
Flow 23: {9 8} {8 15} {15 30} 
Flow 24: {11 13} {13 5} {5 2} 
Flow 28: {11 15} 
Flow 30: {13 15} {15 4} {4 19} 
Flow 31: {13 11} {11 8} 
Flow 36: {4 2} {2 17} 
Flow 38: {15 8} {8 23} 
Time taken running everything: 0 seconds
