networks/zoo_30_42/zoo_30_42.sol
<?xml version = "1.0" encoding="UTF-8" standalone="yes"?>
<CPLEXSolution version="1.2">
 <header
   problemName="networks/zoo_30_42/zoo_30_42.lp"
   solutionName="incumbent"
   solutionIndex="-1"
   objectiveValue="12"
   solutionTypeValue="3"
   solutionTypeString="primal"
   solutionStatusValue="101"
   solutionStatusString="integer optimal solution"
   solutionMethodString="mip"
   primalFeasible="1"
   dualFeasible="1"
   MIPNodes="0"
   MIPIterations="192"
   writeLevel="3"/>
 <quality
   epInt="1.0000000000000001e-05"
   epRHS="9.9999999999999995e-07"
   maxIntInfeas="4.4408920985006262e-16"
   maxPrimalInfeas="4.4408920985006262e-16"
   maxX="4"
   maxSlack="10"/>
 <variables>
  <variable name="Y(2,10)" index="25" value="1"/>
  <variable name="Y(3,11)" index="45" value="1"/>
  <variable name="Y(5,13)" index="85" value="1"/>
  <variable name="Y(19,15)" index="352" value="1"/>
  <variable name="Y(21,12)" index="388" value="1"/>
  <variable name="Y(23,15)" index="428" value="1"/>
  <variable name="Y(24,5)" index="439" value="0.99999999999999956"/>
  <variable name="Y(28,11)" index="520" value="1"/>
  <variable name="Y(30,4)" index="552" value="1"/>
  <variable name="Y(31,11)" index="577" value="1"/>
  <variable name="Y(36,2)" index="665" value="1"/>
  <variable name="Y(38,8)" index="707" value="1"/>
  <variable name="X(2,4,2)" index="799" value="1"/>
  <variable name="X(2,5,5)" index="844" value="1"/>
  <variable name="X(2,17,36)" index="917" value="1"/>
  <variable name="X(4,2,36)" index="959" value="1"/>
  <variable name="X(4,15,2)" index="967" value="1"/>
  <variable name="X(4,19,30)" index="1037" value="1"/>
  <variable name="X(5,2,24)" index="1073" value="1"/>
  <variable name="X(5,13,5)" index="1096" value="1"/>
  <variable name="X(7,15,19)" index="1152" value="1"/>
  <variable name="X(8,11,21)" index="1196" value="1"/>
  <variable name="X(8,15,23)" index="1240" value="1"/>
  <variable name="X(8,23,38)" index="1297" value="1"/>
  <variable name="X(9,8,23)" index="1324" value="1"/>
  <variable name="X(10,25,2)" index="1345" value="1"/>
  <variable name="X(11,8,31)" index="1416" value="1"/>
  <variable name="X(11,10,2)" index="1429" value="1"/>
  <variable name="X(11,12,21)" index="1490" value="1"/>
  <variable name="X(11,13,24)" index="1535" value="1"/>
  <variable name="X(11,15,28)" index="1581" value="1"/>
  <variable name="X(11,26,3)" index="1598" value="1"/>
  <variable name="X(12,27,21)" index="1658" value="1"/>
  <variable name="X(13,5,24)" index="1703" value="1"/>
  <variable name="X(13,11,31)" index="1752" value="1"/>
  <variable name="X(13,15,30)" index="1793" value="1"/>
  <variable name="X(13,28,5)" index="1810" value="1"/>
  <variable name="X(15,4,30)" index="1877" value="1"/>
  <variable name="X(15,8,38)" index="1927" value="1"/>
  <variable name="X(15,11,2)" index="1933" value="1"/>
  <variable name="X(15,13,19)" index="1992" value="1"/>
  <variable name="X(15,30,23)" index="2038" value="1"/>
  <variable name="C(2,4)" index="2061" value="1"/>
  <variable name="C(2,15)" index="2062" value="2"/>
  <variable name="C(2,11)" index="2063" value="3"/>
  <variable name="C(2,10)" index="2064" value="4"/>
  <variable name="C(5,5)" index="2075" value="1"/>
  <variable name="C(5,13)" index="2076" value="2"/>
  <variable name="C(19,15)" index="2117" value="1"/>
  <variable name="C(21,11)" index="2124" value="1"/>
  <variable name="C(21,12)" index="2125" value="2"/>
  <variable name="C(23,8)" index="2131" value="1"/>
  <variable name="C(23,15)" index="2132" value="2"/>
  <variable name="C(24,13)" index="2134" value="1"/>
  <variable name="C(24,5)" index="2135" value="2"/>
  <variable name="C(30,15)" index="2149" value="1"/>
  <variable name="C(30,4)" index="2150" value="1.9999999999999998"/>
  <variable name="C(31,11)" index="2152" value="1"/>
  <variable name="C(36,2)" index="2166" value="1"/>
  <variable name="C(38,8)" index="2170" value="1"/>
 </variables>
</CPLEXSolution>
